ampl: model socpsdd.mod; data q1.dat; solve; display y, S;
CPLEX 12.7.1.0: CPXPARAM_Simplex_Display                         0
CPXPARAM_MIP_Display                             0
CPXPARAM_Barrier_Display                         0
optimal solution; objective 0
No basis.
y [*] :=
1  0
2  0
;

S :=
1 1   0
1 2   0
1 3   0
2 1   0
2 2   0
2 3   0
3 1   0
3 2   0
3 3   2
;
